51
100
70	10
69	6
68	5
67	8
66	10
65	5
64	5
63	13
62	6
61	4
60	9
59	7
58	14
57	11
56	12
55	6
54	6
53	6
52	7
51	11
50	5
49	5
48	6
47	11
46	8
45	9
44	3
43	3
42	7
41	9
40	6
39	7
38	7
37	9
36	11
35	9
34	5
33	5
32	11
31	8
30	3
29	10
28	13
27	10
26	9
25	3
24	10
23	14
22	7
21	9
20	7
